p cnf 1326
-21 -413
-22 -416
-23 -419
-24 -422
-25 -425
-26 -428
-27 -431
-28 -434
-29 -437
-30 -440
-31 -443
-32 -446
-33 -449
-34 -452
-35 -455
-36 -458
-37 -461
-38 -464
-39 -467
-40 -470
-41 471
-42 472
-43 473
-44 474
-45 475
-46 476
-47 477
-48 478
-49 479
-50 -22
-50 -23
22 23 50
-51 -24
-51 -25
24 25 51
-52 -26
-52 -27
26 27 52
-53 -28
-53 -29
28 29 53
-54 -30
-54 -31
30 31 54
-55 -32
-55 -33
32 33 55
-56 -34
-56 -35
34 35 56
-57 -36
-57 -37
36 37 57
-58 -38
-58 -39
38 39 58
-59 -40
-59 -41
40 41 59
-60 -42
-60 -43
42 43 60
-61 -44
-61 -45
44 45 61
-62 -46
-62 -47
46 47 62
-63 -48
-63 -49
48 49 63
-64 50
-64 51
-50 -51 64
-65 52
-65 53
-52 -53 65
-66 54
-66 55
-54 -55 66
-67 56
-67 57
-56 -57 67
-68 58
-68 59
-58 -59 68
-69 60
-69 61
-60 -61 69
-70 62
-70 63
-62 -63 70
-71 64
-71 65
-64 -65 71
-72 66
-72 67
-66 -67 72
-73 68
-73 69
-68 -69 73
-74 71
-74 72
-71 -72 74
-75 70
-75 73
-70 -73 75
-76 74
-76 75
-74 -75 76
-77 -21
-77 22
21 -22 77
-78 21
-78 -22
-21 22 78
-79 -77
-79 -78
77 78 79
-80 21
-80 22
-21 -22 80
-81 -21
-81 -79
21 79 81
-82 21
-82 79
-21 -79 82
-83 -81
-83 -82
81 82 83
-84 21
-84 -79
-21 79 84
-85 -80
-85 -84
80 84 85
-86 -22
-86 23
22 -23 86
-87 22
-87 -23
-22 23 87
-88 -86
-88 -87
86 87 88
-89 22
-89 23
-22 -23 89
-90 85
-90 -88
-85 88 90
-91 -85
-91 88
85 -88 91
-92 -90
-92 -91
90 91 92
-93 -85
-93 -88
85 88 93
-94 -89
-94 -93
89 93 94
-95 -23
-95 24
23 -24 95
-96 23
-96 -24
-23 24 96
-97 -95
-97 -96
95 96 97
-98 23
-98 24
-23 -24 98
-99 94
-99 -97
-94 97 99
-100 -94
-100 97
94 -97 100
-101 -99
-101 -100
99 100 101
-102 -94
-102 -97
94 97 102
-103 -98
-103 -102
98 102 103
-104 -24
-104 25
24 -25 104
-105 24
-105 -25
-24 25 105
-106 -104
-106 -105
104 105 106
-107 24
-107 25
-24 -25 107
-108 103
-108 -106
-103 106 108
-109 -103
-109 106
103 -106 109
-110 -108
-110 -109
108 109 110
-111 -103
-111 -106
103 106 111
-112 -107
-112 -111
107 111 112
-113 -25
-113 26
25 -26 113
-114 25
-114 -26
-25 26 114
-115 -113
-115 -114
113 114 115
-116 25
-116 26
-25 -26 116
-117 112
-117 -115
-112 115 117
-118 -112
-118 115
112 -115 118
-119 -117
-119 -118
117 118 119
-120 -112
-120 -115
112 115 120
-121 -116
-121 -120
116 120 121
-122 -26
-122 27
26 -27 122
-123 26
-123 -27
-26 27 123
-124 -122
-124 -123
122 123 124
-125 26
-125 27
-26 -27 125
-126 121
-126 -124
-121 124 126
-127 -121
-127 124
121 -124 127
-128 -126
-128 -127
126 127 128
-129 -121
-129 -124
121 124 129
-130 -125
-130 -129
125 129 130
-131 -27
-131 28
27 -28 131
-132 27
-132 -28
-27 28 132
-133 -131
-133 -132
131 132 133
-134 27
-134 28
-27 -28 134
-135 130
-135 -133
-130 133 135
-136 -130
-136 133
130 -133 136
-137 -135
-137 -136
135 136 137
-138 -130
-138 -133
130 133 138
-139 -134
-139 -138
134 138 139
-140 -28
-140 29
28 -29 140
-141 28
-141 -29
-28 29 141
-142 -140
-142 -141
140 141 142
-143 28
-143 29
-28 -29 143
-144 139
-144 -142
-139 142 144
-145 -139
-145 142
139 -142 145
-146 -144
-146 -145
144 145 146
-147 -139
-147 -142
139 142 147
-148 -143
-148 -147
143 147 148
-149 -29
-149 30
29 -30 149
-150 29
-150 -30
-29 30 150
-151 -149
-151 -150
149 150 151
-152 29
-152 30
-29 -30 152
-153 148
-153 -151
-148 151 153
-154 -148
-154 151
148 -151 154
-155 -153
-155 -154
153 154 155
-156 -148
-156 -151
148 151 156
-157 -152
-157 -156
152 156 157
-158 -30
-158 31
30 -31 158
-159 30
-159 -31
-30 31 159
-160 -158
-160 -159
158 159 160
-161 30
-161 31
-30 -31 161
-162 157
-162 -160
-157 160 162
-163 -157
-163 160
157 -160 163
-164 -162
-164 -163
162 163 164
-165 -157
-165 -160
157 160 165
-166 -161
-166 -165
161 165 166
-167 -31
-167 32
31 -32 167
-168 31
-168 -32
-31 32 168
-169 -167
-169 -168
167 168 169
-170 31
-170 32
-31 -32 170
-171 166
-171 -169
-166 169 171
-172 -166
-172 169
166 -169 172
-173 -171
-173 -172
171 172 173
-174 -166
-174 -169
166 169 174
-175 -170
-175 -174
170 174 175
-176 -32
-176 33
32 -33 176
-177 32
-177 -33
-32 33 177
-178 -176
-178 -177
176 177 178
-179 32
-179 33
-32 -33 179
-180 175
-180 -178
-175 178 180
-181 -175
-181 178
175 -178 181
-182 -180
-182 -181
180 181 182
-183 -175
-183 -178
175 178 183
-184 -179
-184 -183
179 183 184
-185 -33
-185 34
33 -34 185
-186 33
-186 -34
-33 34 186
-187 -185
-187 -186
185 186 187
-188 33
-188 34
-33 -34 188
-189 184
-189 -187
-184 187 189
-190 -184
-190 187
184 -187 190
-191 -189
-191 -190
189 190 191
-192 -184
-192 -187
184 187 192
-193 -188
-193 -192
188 192 193
-194 -34
-194 35
34 -35 194
-195 34
-195 -35
-34 35 195
-196 -194
-196 -195
194 195 196
-197 34
-197 35
-34 -35 197
-198 193
-198 -196
-193 196 198
-199 -193
-199 196
193 -196 199
-200 -198
-200 -199
198 199 200
-201 -193
-201 -196
193 196 201
-202 -197
-202 -201
197 201 202
-203 -35
-203 36
35 -36 203
-204 35
-204 -36
-35 36 204
-205 -203
-205 -204
203 204 205
-206 35
-206 36
-35 -36 206
-207 202
-207 -205
-202 205 207
-208 -202
-208 205
202 -205 208
-209 -207
-209 -208
207 208 209
-210 -202
-210 -205
202 205 210
-211 -206
-211 -210
206 210 211
-212 -36
-212 37
36 -37 212
-213 36
-213 -37
-36 37 213
-214 -212
-214 -213
212 213 214
-215 36
-215 37
-36 -37 215
-216 211
-216 -214
-211 214 216
-217 -211
-217 214
211 -214 217
-218 -216
-218 -217
216 217 218
-219 -211
-219 -214
211 214 219
-220 -215
-220 -219
215 219 220
-221 -37
-221 38
37 -38 221
-222 37
-222 -38
-37 38 222
-223 -221
-223 -222
221 222 223
-224 37
-224 38
-37 -38 224
-225 220
-225 -223
-220 223 225
-226 -220
-226 223
220 -223 226
-227 -225
-227 -226
225 226 227
-228 -220
-228 -223
220 223 228
-229 -224
-229 -228
224 228 229
-230 -38
-230 39
38 -39 230
-231 38
-231 -39
-38 39 231
-232 -230
-232 -231
230 231 232
-233 38
-233 39
-38 -39 233
-234 229
-234 -232
-229 232 234
-235 -229
-235 232
229 -232 235
-236 -234
-236 -235
234 235 236
-237 -229
-237 -232
229 232 237
-238 -233
-238 -237
233 237 238
-239 -39
-239 40
39 -40 239
-240 39
-240 -40
-39 40 240
-241 -239
-241 -240
239 240 241
-242 39
-242 40
-39 -40 242
-243 238
-243 -241
-238 241 243
-244 -238
-244 241
238 -241 244
-245 -243
-245 -244
243 244 245
-246 -238
-246 -241
238 241 246
-247 -242
-247 -246
242 246 247
-248 -40
-248 41
40 -41 248
-249 40
-249 -41
-40 41 249
-250 -248
-250 -249
248 249 250
-251 40
-251 41
-40 -41 251
-252 247
-252 -250
-247 250 252
-253 -247
-253 250
247 -250 253
-254 -252
-254 -253
252 253 254
-255 -247
-255 -250
247 250 255
-256 -251
-256 -255
251 255 256
-257 -41
-257 42
41 -42 257
-258 41
-258 -42
-41 42 258
-259 -257
-259 -258
257 258 259
-260 41
-260 42
-41 -42 260
-261 256
-261 -259
-256 259 261
-262 -256
-262 259
256 -259 262
-263 -261
-263 -262
261 262 263
-264 -256
-264 -259
256 259 264
-265 -260
-265 -264
260 264 265
-266 -42
-266 43
42 -43 266
-267 42
-267 -43
-42 43 267
-268 -266
-268 -267
266 267 268
-269 42
-269 43
-42 -43 269
-270 265
-270 -268
-265 268 270
-271 -265
-271 268
265 -268 271
-272 -270
-272 -271
270 271 272
-273 -265
-273 -268
265 268 273
-274 -269
-274 -273
269 273 274
-275 -43
-275 44
43 -44 275
-276 43
-276 -44
-43 44 276
-277 -275
-277 -276
275 276 277
-278 43
-278 44
-43 -44 278
-279 274
-279 -277
-274 277 279
-280 -274
-280 277
274 -277 280
-281 -279
-281 -280
279 280 281
-282 -274
-282 -277
274 277 282
-283 -278
-283 -282
278 282 283
-284 -44
-284 45
44 -45 284
-285 44
-285 -45
-44 45 285
-286 -284
-286 -285
284 285 286
-287 44
-287 45
-44 -45 287
-288 283
-288 -286
-283 286 288
-289 -283
-289 286
283 -286 289
-290 -288
-290 -289
288 289 290
-291 -283
-291 -286
283 286 291
-292 -287
-292 -291
287 291 292
-293 -45
-293 46
45 -46 293
-294 45
-294 -46
-45 46 294
-295 -293
-295 -294
293 294 295
-296 45
-296 46
-45 -46 296
-297 292
-297 -295
-292 295 297
-298 -292
-298 295
292 -295 298
-299 -297
-299 -298
297 298 299
-300 -292
-300 -295
292 295 300
-301 -296
-301 -300
296 300 301
-302 -46
-302 47
46 -47 302
-303 46
-303 -47
-46 47 303
-304 -302
-304 -303
302 303 304
-305 46
-305 47
-46 -47 305
-306 301
-306 -304
-301 304 306
-307 -301
-307 304
301 -304 307
-308 -306
-308 -307
306 307 308
-309 -301
-309 -304
301 304 309
-310 -305
-310 -309
305 309 310
-311 -47
-311 48
47 -48 311
-312 47
-312 -48
-47 48 312
-313 -311
-313 -312
311 312 313
-314 47
-314 48
-47 -48 314
-315 310
-315 -313
-310 313 315
-316 -310
-316 313
310 -313 316
-317 -315
-317 -316
315 316 317
-318 -310
-318 -313
310 313 318
-319 -314
-319 -318
314 318 319
-320 -48
-320 49
48 -49 320
-321 48
-321 -49
-48 49 321
-322 -320
-322 -321
320 321 322
-323 48
-323 49
-48 -49 323
-324 319
-324 -322
-319 322 324
-325 -319
-325 322
319 -322 325
-326 -324
-326 -325
324 325 326
-327 -319
-327 -322
319 322 327
-328 -323
-328 -327
323 327 328
-329 21
-329 -83
-21 83 329
-330 -21
-330 23
21 -23 330
-331 -329
-331 -330
329 330 331
-332 21
-332 -92
-21 92 332
-333 -21
-333 24
21 -24 333
-334 -332
-334 -333
332 333 334
-335 21
-335 -101
-21 101 335
-336 -21
-336 25
21 -25 336
-337 -335
-337 -336
335 336 337
-338 21
-338 -110
-21 110 338
-339 -21
-339 26
21 -26 339
-340 -338
-340 -339
338 339 340
-341 21
-341 -119
-21 119 341
-342 -21
-342 27
21 -27 342
-343 -341
-343 -342
341 342 343
-344 21
-344 -128
-21 128 344
-345 -21
-345 28
21 -28 345
-346 -344
-346 -345
344 345 346
-347 21
-347 -137
-21 137 347
-348 -21
-348 29
21 -29 348
-349 -347
-349 -348
347 348 349
-350 21
-350 -146
-21 146 350
-351 -21
-351 30
21 -30 351
-352 -350
-352 -351
350 351 352
-353 21
-353 -155
-21 155 353
-354 -21
-354 31
21 -31 354
-355 -353
-355 -354
353 354 355
-356 21
-356 -164
-21 164 356
-357 -21
-357 32
21 -32 357
-358 -356
-358 -357
356 357 358
-359 21
-359 -173
-21 173 359
-360 -21
-360 33
21 -33 360
-361 -359
-361 -360
359 360 361
-362 21
-362 -182
-21 182 362
-363 -21
-363 34
21 -34 363
-364 -362
-364 -363
362 363 364
-365 21
-365 -191
-21 191 365
-366 -21
-366 35
21 -35 366
-367 -365
-367 -366
365 366 367
-368 21
-368 -200
-21 200 368
-369 -21
-369 36
21 -36 369
-370 -368
-370 -369
368 369 370
-371 21
-371 -209
-21 209 371
-372 -21
-372 37
21 -37 372
-373 -371
-373 -372
371 372 373
-374 21
-374 -218
-21 218 374
-375 -21
-375 38
21 -38 375
-376 -374
-376 -375
374 375 376
-377 21
-377 -227
-21 227 377
-378 -21
-378 39
21 -39 378
-379 -377
-379 -378
377 378 379
-380 21
-380 -236
-21 236 380
-381 -21
-381 40
21 -40 381
-382 -380
-382 -381
380 381 382
-383 21
-383 -245
-21 245 383
-384 -21
-384 41
21 -41 384
-385 -383
-385 -384
383 384 385
-386 21
-386 -254
-21 254 386
-387 -21
-387 42
21 -42 387
-388 -386
-388 -387
386 387 388
-389 21
-389 -263
-21 263 389
-390 -21
-390 43
21 -43 390
-391 -389
-391 -390
389 390 391
-392 21
-392 -272
-21 272 392
-393 -21
-393 44
21 -44 393
-394 -392
-394 -393
392 393 394
-395 21
-395 -281
-21 281 395
-396 -21
-396 45
21 -45 396
-397 -395
-397 -396
395 396 397
-398 21
-398 -290
-21 290 398
-399 -21
-399 46
21 -46 399
-400 -398
-400 -399
398 399 400
-401 21
-401 -299
-21 299 401
-402 -21
-402 47
21 -47 402
-403 -401
-403 -402
401 402 403
-404 21
-404 -308
-21 308 404
-405 -21
-405 48
21 -48 405
-406 -404
-406 -405
404 405 406
-407 21
-407 -317
-21 317 407
-408 -21
-408 49
21 -49 408
-409 -407
-409 -408
407 408 409
-410 21
-410 -326
-21 326 410
-411 1
-411 76
-1 -76 411
-412 -76
-412 77
76 -77 412
-413 -411
-413 -412
411 412 413
-414 2
-414 76
-2 -76 414
-415 -76
-415 -331
76 331 415
-416 -414
-416 -415
414 415 416
-417 3
-417 76
-3 -76 417
-418 -76
-418 -334
76 334 418
-419 -417
-419 -418
417 418 419
-420 4
-420 76
-4 -76 420
-421 -76
-421 -337
76 337 421
-422 -420
-422 -421
420 421 422
-423 5
-423 76
-5 -76 423
-424 -76
-424 -340
76 340 424
-425 -423
-425 -424
423 424 425
-426 6
-426 76
-6 -76 426
-427 -76
-427 -343
76 343 427
-428 -426
-428 -427
426 427 428
-429 7
-429 76
-7 -76 429
-430 -76
-430 -346
76 346 430
-431 -429
-431 -430
429 430 431
-432 8
-432 76
-8 -76 432
-433 -76
-433 -349
76 349 433
-434 -432
-434 -433
432 433 434
-435 9
-435 76
-9 -76 435
-436 -76
-436 -352
76 352 436
-437 -435
-437 -436
435 436 437
-438 10
-438 76
-10 -76 438
-439 -76
-439 -355
76 355 439
-440 -438
-440 -439
438 439 440
-441 11
-441 76
-11 -76 441
-442 -76
-442 -358
76 358 442
-443 -441
-443 -442
441 442 443
-444 12
-444 76
-12 -76 444
-445 -76
-445 -361
76 361 445
-446 -444
-446 -445
444 445 446
-447 13
-447 76
-13 -76 447
-448 -76
-448 -364
76 364 448
-449 -447
-449 -448
447 448 449
-450 14
-450 76
-14 -76 450
-451 -76
-451 -367
76 367 451
-452 -450
-452 -451
450 451 452
-453 15
-453 76
-15 -76 453
-454 -76
-454 -370
76 370 454
-455 -453
-455 -454
453 454 455
-456 16
-456 76
-16 -76 456
-457 -76
-457 -373
76 373 457
-458 -456
-458 -457
456 457 458
-459 17
-459 76
-17 -76 459
-460 -76
-460 -376
76 376 460
-461 -459
-461 -460
459 460 461
-462 18
-462 76
-18 -76 462
-463 -76
-463 -379
76 379 463
-464 -462
-464 -463
462 463 464
-465 19
-465 76
-19 -76 465
-466 -76
-466 -382
76 382 466
-467 -465
-467 -466
465 466 467
-468 20
-468 76
-20 -76 468
-469 -76
-469 -385
76 385 469
-470 -468
-470 -469
468 469 470
-471 -76
-471 -388
76 388 471
-472 -76
-472 -391
76 391 472
-473 -76
-473 -394
76 394 473
-474 -76
-474 -397
76 397 474
-475 -76
-475 -400
76 400 475
-476 -76
-476 -403
76 403 476
-477 -76
-477 -406
76 406 477
-478 -76
-478 -409
76 409 478
-479 -76
-479 410
76 -410 479
-480 -49
-480 328
49 -328 480
-481 21
-481 -480
-21 480 481
481
